p cnf 436 1740
c p weight 178 0 0
c p weight -178 1 0
c p weight 179 1.0 0
c p weight -179 1 0
174 -173 171 0
174 -173 172 0
-174 173 171 0
-174 173 172 0
174 173 -171 -172 0
-174 -173 -171 -172 0
175 171 -172 0
175 -171 172 0
-175 171 172 0
-175 -171 -172 0
176 177 -174 0
176 -174 175 0
-176 177 174 0
-176 174 175 0
176 -174 -171 0
-176 174 -171 0
176 -177 174 171 -175 0
-176 -177 -174 171 -175 0
177 -171 175 0
-177 171 175 0
-178 175 0
177 -178 -171 0
-177 -178 171 0
177 178 171 -175 0
-177 178 -171 -175 0
-179 175 0
177 -179 171 0
-177 -179 -171 0
177 179 -171 -175 0
-177 179 171 -175 0
180 -176 177 0
180 -176 175 0
-180 176 177 0
-180 176 175 0
180 176 -177 -175 0
-180 -176 -177 -175 0
181 177 -175 0
181 -177 175 0
-181 177 175 0
-181 -177 -175 0
182 -180 177 0
182 -180 170 0
-182 180 177 0
-182 180 170 0
182 -180 169 -181 0
182 -180 -169 181 0
-182 180 169 -181 0
-182 180 -169 181 0
182 180 -177 169 181 -170 0
182 180 -177 -169 -181 -170 0
-182 -180 -177 169 181 -170 0
-182 -180 -177 -169 -181 -170 0
184 177 -169 0
184 -177 169 0
-184 177 169 0
-184 -177 -169 0
183 181 -170 0
183 -181 170 0
-183 181 170 0
-183 -181 -170 0
185 -182 184 0
185 -182 168 0
-185 182 184 0
-185 182 168 0
185 -182 167 -170 0
185 -182 -167 170 0
-185 182 167 -170 0
-185 182 -167 170 0
185 182 -184 167 170 -168 0
185 182 -184 -167 -170 -168 0
-185 -182 -184 167 170 -168 0
-185 -182 -184 -167 -170 -168 0
187 184 -167 0
187 -184 167 0
-187 184 167 0
-187 -184 -167 0
186 170 -168 0
186 -170 168 0
-186 170 168 0
-186 -170 -168 0
188 -185 187 0
188 -185 166 0
-188 185 187 0
-188 185 166 0
188 -185 165 -168 0
188 -185 -165 168 0
-188 185 165 -168 0
-188 185 -165 168 0
188 185 -187 165 168 -166 0
188 185 -187 -165 -168 -166 0
-188 -185 -187 165 168 -166 0
-188 -185 -187 -165 -168 -166 0
190 187 -165 0
190 -187 165 0
-190 187 165 0
-190 -187 -165 0
189 168 -166 0
189 -168 166 0
-189 168 166 0
-189 -168 -166 0
191 -188 190 0
191 -188 164 0
-191 188 190 0
-191 188 164 0
191 -188 163 -166 0
191 -188 -163 166 0
-191 188 163 -166 0
-191 188 -163 166 0
191 188 -190 163 166 -164 0
191 188 -190 -163 -166 -164 0
-191 -188 -190 163 166 -164 0
-191 -188 -190 -163 -166 -164 0
193 190 -163 0
193 -190 163 0
-193 190 163 0
-193 -190 -163 0
192 166 -164 0
192 -166 164 0
-192 166 164 0
-192 -166 -164 0
194 -191 193 0
194 -191 162 0
-194 191 193 0
-194 191 162 0
194 -191 161 -164 0
194 -191 -161 164 0
-194 191 161 -164 0
-194 191 -161 164 0
194 191 -193 161 164 -162 0
194 191 -193 -161 -164 -162 0
-194 -191 -193 161 164 -162 0
-194 -191 -193 -161 -164 -162 0
196 193 -161 0
196 -193 161 0
-196 193 161 0
-196 -193 -161 0
195 164 -162 0
195 -164 162 0
-195 164 162 0
-195 -164 -162 0
197 -194 196 0
197 -194 160 0
-197 194 196 0
-197 194 160 0
197 -194 159 -162 0
197 -194 -159 162 0
-197 194 159 -162 0
-197 194 -159 162 0
197 194 -196 159 162 -160 0
197 194 -196 -159 -162 -160 0
-197 -194 -196 159 162 -160 0
-197 -194 -196 -159 -162 -160 0
199 196 -159 0
199 -196 159 0
-199 196 159 0
-199 -196 -159 0
198 162 -160 0
198 -162 160 0
-198 162 160 0
-198 -162 -160 0
200 -197 199 0
200 -197 158 0
-200 197 199 0
-200 197 158 0
200 -197 157 -160 0
200 -197 -157 160 0
-200 197 157 -160 0
-200 197 -157 160 0
200 197 -199 157 160 -158 0
200 197 -199 -157 -160 -158 0
-200 -197 -199 157 160 -158 0
-200 -197 -199 -157 -160 -158 0
202 199 -157 0
202 -199 157 0
-202 199 157 0
-202 -199 -157 0
201 160 -158 0
201 -160 158 0
-201 160 158 0
-201 -160 -158 0
203 -200 202 0
203 -200 156 0
-203 200 202 0
-203 200 156 0
203 -200 155 -158 0
203 -200 -155 158 0
-203 200 155 -158 0
-203 200 -155 158 0
203 200 -202 155 158 -156 0
203 200 -202 -155 -158 -156 0
-203 -200 -202 155 158 -156 0
-203 -200 -202 -155 -158 -156 0
205 202 -155 0
205 -202 155 0
-205 202 155 0
-205 -202 -155 0
204 158 -156 0
204 -158 156 0
-204 158 156 0
-204 -158 -156 0
206 -203 205 0
206 -203 154 0
-206 203 205 0
-206 203 154 0
206 -203 153 -156 0
206 -203 -153 156 0
-206 203 153 -156 0
-206 203 -153 156 0
206 203 -205 153 156 -154 0
206 203 -205 -153 -156 -154 0
-206 -203 -205 153 156 -154 0
-206 -203 -205 -153 -156 -154 0
208 205 -153 0
208 -205 153 0
-208 205 153 0
-208 -205 -153 0
207 156 -154 0
207 -156 154 0
-207 156 154 0
-207 -156 -154 0
209 -206 208 0
209 -206 152 0
-209 206 208 0
-209 206 152 0
209 -206 151 -154 0
209 -206 -151 154 0
-209 206 151 -154 0
-209 206 -151 154 0
209 206 -208 151 154 -152 0
209 206 -208 -151 -154 -152 0
-209 -206 -208 151 154 -152 0
-209 -206 -208 -151 -154 -152 0
211 208 -151 0
211 -208 151 0
-211 208 151 0
-211 -208 -151 0
210 154 -152 0
210 -154 152 0
-210 154 152 0
-210 -154 -152 0
212 -209 211 0
212 -209 150 0
-212 209 211 0
-212 209 150 0
212 -209 149 -152 0
212 -209 -149 152 0
-212 209 149 -152 0
-212 209 -149 152 0
212 209 -211 149 152 -150 0
212 209 -211 -149 -152 -150 0
-212 -209 -211 149 152 -150 0
-212 -209 -211 -149 -152 -150 0
214 211 -149 0
214 -211 149 0
-214 211 149 0
-214 -211 -149 0
213 152 -150 0
213 -152 150 0
-213 152 150 0
-213 -152 -150 0
215 -212 214 0
215 -212 148 0
-215 212 214 0
-215 212 148 0
215 -212 147 -150 0
215 -212 -147 150 0
-215 212 147 -150 0
-215 212 -147 150 0
215 212 -214 147 150 -148 0
215 212 -214 -147 -150 -148 0
-215 -212 -214 147 150 -148 0
-215 -212 -214 -147 -150 -148 0
217 214 -147 0
217 -214 147 0
-217 214 147 0
-217 -214 -147 0
216 150 -148 0
216 -150 148 0
-216 150 148 0
-216 -150 -148 0
218 -215 217 0
218 -215 146 0
-218 215 217 0
-218 215 146 0
218 -215 145 -148 0
218 -215 -145 148 0
-218 215 145 -148 0
-218 215 -145 148 0
218 215 -217 145 148 -146 0
218 215 -217 -145 -148 -146 0
-218 -215 -217 145 148 -146 0
-218 -215 -217 -145 -148 -146 0
220 217 -145 0
220 -217 145 0
-220 217 145 0
-220 -217 -145 0
219 148 -146 0
219 -148 146 0
-219 148 146 0
-219 -148 -146 0
221 -218 220 0
221 -218 144 0
-221 218 220 0
-221 218 144 0
221 -218 143 -146 0
221 -218 -143 146 0
-221 218 143 -146 0
-221 218 -143 146 0
221 218 -220 143 146 -144 0
221 218 -220 -143 -146 -144 0
-221 -218 -220 143 146 -144 0
-221 -218 -220 -143 -146 -144 0
223 220 -143 0
223 -220 143 0
-223 220 143 0
-223 -220 -143 0
222 146 -144 0
222 -146 144 0
-222 146 144 0
-222 -146 -144 0
224 -221 223 0
224 -221 142 0
-224 221 223 0
-224 221 142 0
224 -221 141 -144 0
224 -221 -141 144 0
-224 221 141 -144 0
-224 221 -141 144 0
224 221 -223 141 144 -142 0
224 221 -223 -141 -144 -142 0
-224 -221 -223 141 144 -142 0
-224 -221 -223 -141 -144 -142 0
226 223 -141 0
226 -223 141 0
-226 223 141 0
-226 -223 -141 0
225 144 -142 0
225 -144 142 0
-225 144 142 0
-225 -144 -142 0
227 -224 226 0
227 -224 140 0
-227 224 226 0
-227 224 140 0
227 -224 139 -142 0
227 -224 -139 142 0
-227 224 139 -142 0
-227 224 -139 142 0
227 224 -226 139 142 -140 0
227 224 -226 -139 -142 -140 0
-227 -224 -226 139 142 -140 0
-227 -224 -226 -139 -142 -140 0
229 226 -139 0
229 -226 139 0
-229 226 139 0
-229 -226 -139 0
228 142 -140 0
228 -142 140 0
-228 142 140 0
-228 -142 -140 0
230 -227 229 0
230 -227 138 0
-230 227 229 0
-230 227 138 0
230 -227 137 -140 0
230 -227 -137 140 0
-230 227 137 -140 0
-230 227 -137 140 0
230 227 -229 137 140 -138 0
230 227 -229 -137 -140 -138 0
-230 -227 -229 137 140 -138 0
-230 -227 -229 -137 -140 -138 0
232 229 -137 0
232 -229 137 0
-232 229 137 0
-232 -229 -137 0
231 140 -138 0
231 -140 138 0
-231 140 138 0
-231 -140 -138 0
233 -230 232 0
233 -230 136 0
-233 230 232 0
-233 230 136 0
233 -230 135 -138 0
233 -230 -135 138 0
-233 230 135 -138 0
-233 230 -135 138 0
233 230 -232 135 138 -136 0
233 230 -232 -135 -138 -136 0
-233 -230 -232 135 138 -136 0
-233 -230 -232 -135 -138 -136 0
235 232 -135 0
235 -232 135 0
-235 232 135 0
-235 -232 -135 0
234 138 -136 0
234 -138 136 0
-234 138 136 0
-234 -138 -136 0
236 -233 235 0
236 -233 134 0
-236 233 235 0
-236 233 134 0
236 -233 133 -136 0
236 -233 -133 136 0
-236 233 133 -136 0
-236 233 -133 136 0
236 233 -235 133 136 -134 0
236 233 -235 -133 -136 -134 0
-236 -233 -235 133 136 -134 0
-236 -233 -235 -133 -136 -134 0
238 235 -133 0
238 -235 133 0
-238 235 133 0
-238 -235 -133 0
237 136 -134 0
237 -136 134 0
-237 136 134 0
-237 -136 -134 0
239 -236 238 0
239 -236 132 0
-239 236 238 0
-239 236 132 0
239 -236 131 -134 0
239 -236 -131 134 0
-239 236 131 -134 0
-239 236 -131 134 0
239 236 -238 131 134 -132 0
239 236 -238 -131 -134 -132 0
-239 -236 -238 131 134 -132 0
-239 -236 -238 -131 -134 -132 0
241 238 -131 0
241 -238 131 0
-241 238 131 0
-241 -238 -131 0
240 134 -132 0
240 -134 132 0
-240 134 132 0
-240 -134 -132 0
242 -239 241 0
242 -239 130 0
-242 239 241 0
-242 239 130 0
242 -239 129 -132 0
242 -239 -129 132 0
-242 239 129 -132 0
-242 239 -129 132 0
242 239 -241 129 132 -130 0
242 239 -241 -129 -132 -130 0
-242 -239 -241 129 132 -130 0
-242 -239 -241 -129 -132 -130 0
244 241 -129 0
244 -241 129 0
-244 241 129 0
-244 -241 -129 0
243 132 -130 0
243 -132 130 0
-243 132 130 0
-243 -132 -130 0
245 -242 244 0
245 -242 128 0
-245 242 244 0
-245 242 128 0
245 -242 127 -130 0
245 -242 -127 130 0
-245 242 127 -130 0
-245 242 -127 130 0
245 242 -244 127 130 -128 0
245 242 -244 -127 -130 -128 0
-245 -242 -244 127 130 -128 0
-245 -242 -244 -127 -130 -128 0
247 244 -127 0
247 -244 127 0
-247 244 127 0
-247 -244 -127 0
246 130 -128 0
246 -130 128 0
-246 130 128 0
-246 -130 -128 0
248 -245 247 0
248 -245 126 0
-248 245 247 0
-248 245 126 0
248 -245 125 -128 0
248 -245 -125 128 0
-248 245 125 -128 0
-248 245 -125 128 0
248 245 -247 125 128 -126 0
248 245 -247 -125 -128 -126 0
-248 -245 -247 125 128 -126 0
-248 -245 -247 -125 -128 -126 0
250 247 -125 0
250 -247 125 0
-250 247 125 0
-250 -247 -125 0
249 128 -126 0
249 -128 126 0
-249 128 126 0
-249 -128 -126 0
251 -248 250 0
251 -248 124 0
-251 248 250 0
-251 248 124 0
251 -248 123 -126 0
251 -248 -123 126 0
-251 248 123 -126 0
-251 248 -123 126 0
251 248 -250 123 126 -124 0
251 248 -250 -123 -126 -124 0
-251 -248 -250 123 126 -124 0
-251 -248 -250 -123 -126 -124 0
253 250 -123 0
253 -250 123 0
-253 250 123 0
-253 -250 -123 0
252 126 -124 0
252 -126 124 0
-252 126 124 0
-252 -126 -124 0
254 -251 253 0
254 -251 122 0
-254 251 253 0
-254 251 122 0
254 -251 121 -124 0
254 -251 -121 124 0
-254 251 121 -124 0
-254 251 -121 124 0
254 251 -253 121 124 -122 0
254 251 -253 -121 -124 -122 0
-254 -251 -253 121 124 -122 0
-254 -251 -253 -121 -124 -122 0
256 253 -121 0
256 -253 121 0
-256 253 121 0
-256 -253 -121 0
255 124 -122 0
255 -124 122 0
-255 124 122 0
-255 -124 -122 0
257 -254 256 0
257 -254 120 0
-257 254 256 0
-257 254 120 0
257 -254 119 -122 0
257 -254 -119 122 0
-257 254 119 -122 0
-257 254 -119 122 0
257 254 -256 119 122 -120 0
257 254 -256 -119 -122 -120 0
-257 -254 -256 119 122 -120 0
-257 -254 -256 -119 -122 -120 0
259 256 -119 0
259 -256 119 0
-259 256 119 0
-259 -256 -119 0
258 122 -120 0
258 -122 120 0
-258 122 120 0
-258 -122 -120 0
260 -257 259 0
260 -257 118 0
-260 257 259 0
-260 257 118 0
260 -257 117 -120 0
260 -257 -117 120 0
-260 257 117 -120 0
-260 257 -117 120 0
260 257 -259 117 120 -118 0
260 257 -259 -117 -120 -118 0
-260 -257 -259 117 120 -118 0
-260 -257 -259 -117 -120 -118 0
262 259 -117 0
262 -259 117 0
-262 259 117 0
-262 -259 -117 0
261 120 -118 0
261 -120 118 0
-261 120 118 0
-261 -120 -118 0
263 -260 262 0
263 -260 116 0
-263 260 262 0
-263 260 116 0
263 -260 115 -118 0
263 -260 -115 118 0
-263 260 115 -118 0
-263 260 -115 118 0
263 260 -262 115 118 -116 0
263 260 -262 -115 -118 -116 0
-263 -260 -262 115 118 -116 0
-263 -260 -262 -115 -118 -116 0
265 262 -115 0
265 -262 115 0
-265 262 115 0
-265 -262 -115 0
264 118 -116 0
264 -118 116 0
-264 118 116 0
-264 -118 -116 0
266 -263 265 0
266 -263 114 0
-266 263 265 0
-266 263 114 0
266 -263 113 -116 0
266 -263 -113 116 0
-266 263 113 -116 0
-266 263 -113 116 0
266 263 -265 113 116 -114 0
266 263 -265 -113 -116 -114 0
-266 -263 -265 113 116 -114 0
-266 -263 -265 -113 -116 -114 0
268 265 -113 0
268 -265 113 0
-268 265 113 0
-268 -265 -113 0
267 116 -114 0
267 -116 114 0
-267 116 114 0
-267 -116 -114 0
269 -266 268 0
269 -266 112 0
-269 266 268 0
-269 266 112 0
269 -266 111 -114 0
269 -266 -111 114 0
-269 266 111 -114 0
-269 266 -111 114 0
269 266 -268 111 114 -112 0
269 266 -268 -111 -114 -112 0
-269 -266 -268 111 114 -112 0
-269 -266 -268 -111 -114 -112 0
271 268 -111 0
271 -268 111 0
-271 268 111 0
-271 -268 -111 0
270 114 -112 0
270 -114 112 0
-270 114 112 0
-270 -114 -112 0
272 -269 271 0
272 -269 110 0
-272 269 271 0
-272 269 110 0
272 -269 109 -112 0
272 -269 -109 112 0
-272 269 109 -112 0
-272 269 -109 112 0
272 269 -271 109 112 -110 0
272 269 -271 -109 -112 -110 0
-272 -269 -271 109 112 -110 0
-272 -269 -271 -109 -112 -110 0
274 271 -109 0
274 -271 109 0
-274 271 109 0
-274 -271 -109 0
273 112 -110 0
273 -112 110 0
-273 112 110 0
-273 -112 -110 0
275 -272 274 0
275 -272 108 0
-275 272 274 0
-275 272 108 0
275 -272 107 -110 0
275 -272 -107 110 0
-275 272 107 -110 0
-275 272 -107 110 0
275 272 -274 107 110 -108 0
275 272 -274 -107 -110 -108 0
-275 -272 -274 107 110 -108 0
-275 -272 -274 -107 -110 -108 0
277 274 -107 0
277 -274 107 0
-277 274 107 0
-277 -274 -107 0
276 110 -108 0
276 -110 108 0
-276 110 108 0
-276 -110 -108 0
278 -275 277 0
278 -275 106 0
-278 275 277 0
-278 275 106 0
278 -275 105 -108 0
278 -275 -105 108 0
-278 275 105 -108 0
-278 275 -105 108 0
278 275 -277 105 108 -106 0
278 275 -277 -105 -108 -106 0
-278 -275 -277 105 108 -106 0
-278 -275 -277 -105 -108 -106 0
280 277 -105 0
280 -277 105 0
-280 277 105 0
-280 -277 -105 0
279 108 -106 0
279 -108 106 0
-279 108 106 0
-279 -108 -106 0
281 -278 280 0
281 -278 104 0
-281 278 280 0
-281 278 104 0
281 -278 103 -106 0
281 -278 -103 106 0
-281 278 103 -106 0
-281 278 -103 106 0
281 278 -280 103 106 -104 0
281 278 -280 -103 -106 -104 0
-281 -278 -280 103 106 -104 0
-281 -278 -280 -103 -106 -104 0
283 280 -103 0
283 -280 103 0
-283 280 103 0
-283 -280 -103 0
282 106 -104 0
282 -106 104 0
-282 106 104 0
-282 -106 -104 0
284 -281 283 0
284 -281 102 0
-284 281 283 0
-284 281 102 0
284 -281 101 -104 0
284 -281 -101 104 0
-284 281 101 -104 0
-284 281 -101 104 0
284 281 -283 101 104 -102 0
284 281 -283 -101 -104 -102 0
-284 -281 -283 101 104 -102 0
-284 -281 -283 -101 -104 -102 0
286 283 -101 0
286 -283 101 0
-286 283 101 0
-286 -283 -101 0
285 104 -102 0
285 -104 102 0
-285 104 102 0
-285 -104 -102 0
287 -284 286 0
287 -284 100 0
-287 284 286 0
-287 284 100 0
287 -284 99 -102 0
287 -284 -99 102 0
-287 284 99 -102 0
-287 284 -99 102 0
287 284 -286 99 102 -100 0
287 284 -286 -99 -102 -100 0
-287 -284 -286 99 102 -100 0
-287 -284 -286 -99 -102 -100 0
289 286 -99 0
289 -286 99 0
-289 286 99 0
-289 -286 -99 0
288 102 -100 0
288 -102 100 0
-288 102 100 0
-288 -102 -100 0
290 -287 289 0
290 -287 98 0
-290 287 289 0
-290 287 98 0
290 -287 97 -100 0
290 -287 -97 100 0
-290 287 97 -100 0
-290 287 -97 100 0
290 287 -289 97 100 -98 0
290 287 -289 -97 -100 -98 0
-290 -287 -289 97 100 -98 0
-290 -287 -289 -97 -100 -98 0
292 289 -97 0
292 -289 97 0
-292 289 97 0
-292 -289 -97 0
291 100 -98 0
291 -100 98 0
-291 100 98 0
-291 -100 -98 0
293 -290 292 0
293 -290 96 0
-293 290 292 0
-293 290 96 0
293 -290 95 -98 0
293 -290 -95 98 0
-293 290 95 -98 0
-293 290 -95 98 0
293 290 -292 95 98 -96 0
293 290 -292 -95 -98 -96 0
-293 -290 -292 95 98 -96 0
-293 -290 -292 -95 -98 -96 0
295 292 -95 0
295 -292 95 0
-295 292 95 0
-295 -292 -95 0
294 98 -96 0
294 -98 96 0
-294 98 96 0
-294 -98 -96 0
296 -293 295 0
296 -293 94 0
-296 293 295 0
-296 293 94 0
296 -293 93 -96 0
296 -293 -93 96 0
-296 293 93 -96 0
-296 293 -93 96 0
296 293 -295 93 96 -94 0
296 293 -295 -93 -96 -94 0
-296 -293 -295 93 96 -94 0
-296 -293 -295 -93 -96 -94 0
298 295 -93 0
298 -295 93 0
-298 295 93 0
-298 -295 -93 0
297 96 -94 0
297 -96 94 0
-297 96 94 0
-297 -96 -94 0
299 -296 298 0
299 -296 92 0
-299 296 298 0
-299 296 92 0
299 -296 91 -94 0
299 -296 -91 94 0
-299 296 91 -94 0
-299 296 -91 94 0
299 296 -298 91 94 -92 0
299 296 -298 -91 -94 -92 0
-299 -296 -298 91 94 -92 0
-299 -296 -298 -91 -94 -92 0
301 298 -91 0
301 -298 91 0
-301 298 91 0
-301 -298 -91 0
300 94 -92 0
300 -94 92 0
-300 94 92 0
-300 -94 -92 0
302 -299 301 0
302 -299 90 0
-302 299 301 0
-302 299 90 0
302 -299 89 -92 0
302 -299 -89 92 0
-302 299 89 -92 0
-302 299 -89 92 0
302 299 -301 89 92 -90 0
302 299 -301 -89 -92 -90 0
-302 -299 -301 89 92 -90 0
-302 -299 -301 -89 -92 -90 0
304 301 -89 0
304 -301 89 0
-304 301 89 0
-304 -301 -89 0
303 92 -90 0
303 -92 90 0
-303 92 90 0
-303 -92 -90 0
305 -302 304 0
305 -302 88 0
-305 302 304 0
-305 302 88 0
305 -302 87 -90 0
305 -302 -87 90 0
-305 302 87 -90 0
-305 302 -87 90 0
305 302 -304 87 90 -88 0
305 302 -304 -87 -90 -88 0
-305 -302 -304 87 90 -88 0
-305 -302 -304 -87 -90 -88 0
307 304 -87 0
307 -304 87 0
-307 304 87 0
-307 -304 -87 0
306 90 -88 0
306 -90 88 0
-306 90 88 0
-306 -90 -88 0
308 -305 307 0
308 -305 86 0
-308 305 307 0
-308 305 86 0
308 -305 85 -88 0
308 -305 -85 88 0
-308 305 85 -88 0
-308 305 -85 88 0
308 305 -307 85 88 -86 0
308 305 -307 -85 -88 -86 0
-308 -305 -307 85 88 -86 0
-308 -305 -307 -85 -88 -86 0
310 307 -85 0
310 -307 85 0
-310 307 85 0
-310 -307 -85 0
309 88 -86 0
309 -88 86 0
-309 88 86 0
-309 -88 -86 0
311 -308 310 0
311 -308 84 0
-311 308 310 0
-311 308 84 0
311 -308 83 -86 0
311 -308 -83 86 0
-311 308 83 -86 0
-311 308 -83 86 0
311 308 -310 83 86 -84 0
311 308 -310 -83 -86 -84 0
-311 -308 -310 83 86 -84 0
-311 -308 -310 -83 -86 -84 0
313 310 -83 0
313 -310 83 0
-313 310 83 0
-313 -310 -83 0
312 86 -84 0
312 -86 84 0
-312 86 84 0
-312 -86 -84 0
314 -311 313 0
314 -311 82 0
-314 311 313 0
-314 311 82 0
314 -311 81 -84 0
314 -311 -81 84 0
-314 311 81 -84 0
-314 311 -81 84 0
314 311 -313 81 84 -82 0
314 311 -313 -81 -84 -82 0
-314 -311 -313 81 84 -82 0
-314 -311 -313 -81 -84 -82 0
316 313 -81 0
316 -313 81 0
-316 313 81 0
-316 -313 -81 0
315 84 -82 0
315 -84 82 0
-315 84 82 0
-315 -84 -82 0
317 -314 316 0
317 -314 80 0
-317 314 316 0
-317 314 80 0
317 -314 79 -82 0
317 -314 -79 82 0
-317 314 79 -82 0
-317 314 -79 82 0
317 314 -316 79 82 -80 0
317 314 -316 -79 -82 -80 0
-317 -314 -316 79 82 -80 0
-317 -314 -316 -79 -82 -80 0
319 316 -79 0
319 -316 79 0
-319 316 79 0
-319 -316 -79 0
318 82 -80 0
318 -82 80 0
-318 82 80 0
-318 -82 -80 0
320 -317 319 0
320 -317 78 0
-320 317 319 0
-320 317 78 0
320 -317 77 -80 0
320 -317 -77 80 0
-320 317 77 -80 0
-320 317 -77 80 0
320 317 -319 77 80 -78 0
320 317 -319 -77 -80 -78 0
-320 -317 -319 77 80 -78 0
-320 -317 -319 -77 -80 -78 0
322 319 -77 0
322 -319 77 0
-322 319 77 0
-322 -319 -77 0
321 80 -78 0
321 -80 78 0
-321 80 78 0
-321 -80 -78 0
323 -320 322 0
323 -320 76 0
-323 320 322 0
-323 320 76 0
323 -320 75 -78 0
323 -320 -75 78 0
-323 320 75 -78 0
-323 320 -75 78 0
323 320 -322 75 78 -76 0
323 320 -322 -75 -78 -76 0
-323 -320 -322 75 78 -76 0
-323 -320 -322 -75 -78 -76 0
325 322 -75 0
325 -322 75 0
-325 322 75 0
-325 -322 -75 0
324 78 -76 0
324 -78 76 0
-324 78 76 0
-324 -78 -76 0
326 -323 325 0
326 -323 74 0
-326 323 325 0
-326 323 74 0
326 -323 73 -76 0
326 -323 -73 76 0
-326 323 73 -76 0
-326 323 -73 76 0
326 323 -325 73 76 -74 0
326 323 -325 -73 -76 -74 0
-326 -323 -325 73 76 -74 0
-326 -323 -325 -73 -76 -74 0
328 325 -73 0
328 -325 73 0
-328 325 73 0
-328 -325 -73 0
327 76 -74 0
327 -76 74 0
-327 76 74 0
-327 -76 -74 0
329 -326 328 0
329 -326 72 0
-329 326 328 0
-329 326 72 0
329 -326 71 -74 0
329 -326 -71 74 0
-329 326 71 -74 0
-329 326 -71 74 0
329 326 -328 71 74 -72 0
329 326 -328 -71 -74 -72 0
-329 -326 -328 71 74 -72 0
-329 -326 -328 -71 -74 -72 0
331 328 -71 0
331 -328 71 0
-331 328 71 0
-331 -328 -71 0
330 74 -72 0
330 -74 72 0
-330 74 72 0
-330 -74 -72 0
332 -329 331 0
332 -329 70 0
-332 329 331 0
-332 329 70 0
332 -329 69 -72 0
332 -329 -69 72 0
-332 329 69 -72 0
-332 329 -69 72 0
332 329 -331 69 72 -70 0
332 329 -331 -69 -72 -70 0
-332 -329 -331 69 72 -70 0
-332 -329 -331 -69 -72 -70 0
334 331 -69 0
334 -331 69 0
-334 331 69 0
-334 -331 -69 0
333 72 -70 0
333 -72 70 0
-333 72 70 0
-333 -72 -70 0
335 -332 334 0
335 -332 68 0
-335 332 334 0
-335 332 68 0
335 -332 67 -70 0
335 -332 -67 70 0
-335 332 67 -70 0
-335 332 -67 70 0
335 332 -334 67 70 -68 0
335 332 -334 -67 -70 -68 0
-335 -332 -334 67 70 -68 0
-335 -332 -334 -67 -70 -68 0
337 334 -67 0
337 -334 67 0
-337 334 67 0
-337 -334 -67 0
336 70 -68 0
336 -70 68 0
-336 70 68 0
-336 -70 -68 0
338 -335 337 0
338 -335 66 0
-338 335 337 0
-338 335 66 0
338 -335 65 -68 0
338 -335 -65 68 0
-338 335 65 -68 0
-338 335 -65 68 0
338 335 -337 65 68 -66 0
338 335 -337 -65 -68 -66 0
-338 -335 -337 65 68 -66 0
-338 -335 -337 -65 -68 -66 0
340 337 -65 0
340 -337 65 0
-340 337 65 0
-340 -337 -65 0
339 68 -66 0
339 -68 66 0
-339 68 66 0
-339 -68 -66 0
341 -338 340 0
341 -338 64 0
-341 338 340 0
-341 338 64 0
341 -338 63 -66 0
341 -338 -63 66 0
-341 338 63 -66 0
-341 338 -63 66 0
341 338 -340 63 66 -64 0
341 338 -340 -63 -66 -64 0
-341 -338 -340 63 66 -64 0
-341 -338 -340 -63 -66 -64 0
343 340 -63 0
343 -340 63 0
-343 340 63 0
-343 -340 -63 0
342 66 -64 0
342 -66 64 0
-342 66 64 0
-342 -66 -64 0
344 -341 343 0
344 -341 62 0
-344 341 343 0
-344 341 62 0
344 -341 61 -64 0
344 -341 -61 64 0
-344 341 61 -64 0
-344 341 -61 64 0
344 341 -343 61 64 -62 0
344 341 -343 -61 -64 -62 0
-344 -341 -343 61 64 -62 0
-344 -341 -343 -61 -64 -62 0
346 343 -61 0
346 -343 61 0
-346 343 61 0
-346 -343 -61 0
345 64 -62 0
345 -64 62 0
-345 64 62 0
-345 -64 -62 0
347 -344 346 0
347 -344 60 0
-347 344 346 0
-347 344 60 0
347 -344 59 -62 0
347 -344 -59 62 0
-347 344 59 -62 0
-347 344 -59 62 0
347 344 -346 59 62 -60 0
347 344 -346 -59 -62 -60 0
-347 -344 -346 59 62 -60 0
-347 -344 -346 -59 -62 -60 0
349 346 -59 0
349 -346 59 0
-349 346 59 0
-349 -346 -59 0
348 62 -60 0
348 -62 60 0
-348 62 60 0
-348 -62 -60 0
350 -347 349 0
350 -347 58 0
-350 347 349 0
-350 347 58 0
350 -347 57 -60 0
350 -347 -57 60 0
-350 347 57 -60 0
-350 347 -57 60 0
350 347 -349 57 60 -58 0
350 347 -349 -57 -60 -58 0
-350 -347 -349 57 60 -58 0
-350 -347 -349 -57 -60 -58 0
352 349 -57 0
352 -349 57 0
-352 349 57 0
-352 -349 -57 0
351 60 -58 0
351 -60 58 0
-351 60 58 0
-351 -60 -58 0
353 -350 352 0
353 -350 56 0
-353 350 352 0
-353 350 56 0
353 -350 55 -58 0
353 -350 -55 58 0
-353 350 55 -58 0
-353 350 -55 58 0
353 350 -352 55 58 -56 0
353 350 -352 -55 -58 -56 0
-353 -350 -352 55 58 -56 0
-353 -350 -352 -55 -58 -56 0
355 352 -55 0
355 -352 55 0
-355 352 55 0
-355 -352 -55 0
354 58 -56 0
354 -58 56 0
-354 58 56 0
-354 -58 -56 0
356 -353 355 0
356 -353 54 0
-356 353 355 0
-356 353 54 0
356 -353 53 -56 0
356 -353 -53 56 0
-356 353 53 -56 0
-356 353 -53 56 0
356 353 -355 53 56 -54 0
356 353 -355 -53 -56 -54 0
-356 -353 -355 53 56 -54 0
-356 -353 -355 -53 -56 -54 0
358 355 -53 0
358 -355 53 0
-358 355 53 0
-358 -355 -53 0
357 56 -54 0
357 -56 54 0
-357 56 54 0
-357 -56 -54 0
359 -356 358 0
359 -356 52 0
-359 356 358 0
-359 356 52 0
359 -356 51 -54 0
359 -356 -51 54 0
-359 356 51 -54 0
-359 356 -51 54 0
359 356 -358 51 54 -52 0
359 356 -358 -51 -54 -52 0
-359 -356 -358 51 54 -52 0
-359 -356 -358 -51 -54 -52 0
361 358 -51 0
361 -358 51 0
-361 358 51 0
-361 -358 -51 0
360 54 -52 0
360 -54 52 0
-360 54 52 0
-360 -54 -52 0
362 -359 361 0
362 -359 50 0
-362 359 361 0
-362 359 50 0
362 -359 49 -52 0
362 -359 -49 52 0
-362 359 49 -52 0
-362 359 -49 52 0
362 359 -361 49 52 -50 0
362 359 -361 -49 -52 -50 0
-362 -359 -361 49 52 -50 0
-362 -359 -361 -49 -52 -50 0
364 361 -49 0
364 -361 49 0
-364 361 49 0
-364 -361 -49 0
363 52 -50 0
363 -52 50 0
-363 52 50 0
-363 -52 -50 0
365 -362 364 0
365 -362 48 0
-365 362 364 0
-365 362 48 0
365 -362 47 -50 0
365 -362 -47 50 0
-365 362 47 -50 0
-365 362 -47 50 0
365 362 -364 47 50 -48 0
365 362 -364 -47 -50 -48 0
-365 -362 -364 47 50 -48 0
-365 -362 -364 -47 -50 -48 0
367 364 -47 0
367 -364 47 0
-367 364 47 0
-367 -364 -47 0
366 50 -48 0
366 -50 48 0
-366 50 48 0
-366 -50 -48 0
368 -365 367 0
368 -365 46 0
-368 365 367 0
-368 365 46 0
368 -365 45 -48 0
368 -365 -45 48 0
-368 365 45 -48 0
-368 365 -45 48 0
368 365 -367 45 48 -46 0
368 365 -367 -45 -48 -46 0
-368 -365 -367 45 48 -46 0
-368 -365 -367 -45 -48 -46 0
370 367 -45 0
370 -367 45 0
-370 367 45 0
-370 -367 -45 0
369 48 -46 0
369 -48 46 0
-369 48 46 0
-369 -48 -46 0
371 -368 370 0
371 -368 44 0
-371 368 370 0
-371 368 44 0
371 -368 43 -46 0
371 -368 -43 46 0
-371 368 43 -46 0
-371 368 -43 46 0
371 368 -370 43 46 -44 0
371 368 -370 -43 -46 -44 0
-371 -368 -370 43 46 -44 0
-371 -368 -370 -43 -46 -44 0
373 370 -43 0
373 -370 43 0
-373 370 43 0
-373 -370 -43 0
372 46 -44 0
372 -46 44 0
-372 46 44 0
-372 -46 -44 0
374 -371 373 0
374 -371 42 0
-374 371 373 0
-374 371 42 0
374 -371 41 -44 0
374 -371 -41 44 0
-374 371 41 -44 0
-374 371 -41 44 0
374 371 -373 41 44 -42 0
374 371 -373 -41 -44 -42 0
-374 -371 -373 41 44 -42 0
-374 -371 -373 -41 -44 -42 0
376 373 -41 0
376 -373 41 0
-376 373 41 0
-376 -373 -41 0
375 44 -42 0
375 -44 42 0
-375 44 42 0
-375 -44 -42 0
377 -374 376 0
377 -374 40 0
-377 374 376 0
-377 374 40 0
377 -374 39 -42 0
377 -374 -39 42 0
-377 374 39 -42 0
-377 374 -39 42 0
377 374 -376 39 42 -40 0
377 374 -376 -39 -42 -40 0
-377 -374 -376 39 42 -40 0
-377 -374 -376 -39 -42 -40 0
379 376 -39 0
379 -376 39 0
-379 376 39 0
-379 -376 -39 0
378 42 -40 0
378 -42 40 0
-378 42 40 0
-378 -42 -40 0
380 -377 379 0
380 -377 38 0
-380 377 379 0
-380 377 38 0
380 -377 37 -40 0
380 -377 -37 40 0
-380 377 37 -40 0
-380 377 -37 40 0
380 377 -379 37 40 -38 0
380 377 -379 -37 -40 -38 0
-380 -377 -379 37 40 -38 0
-380 -377 -379 -37 -40 -38 0
382 379 -37 0
382 -379 37 0
-382 379 37 0
-382 -379 -37 0
381 40 -38 0
381 -40 38 0
-381 40 38 0
-381 -40 -38 0
383 -380 382 0
383 -380 36 0
-383 380 382 0
-383 380 36 0
383 -380 35 -38 0
383 -380 -35 38 0
-383 380 35 -38 0
-383 380 -35 38 0
383 380 -382 35 38 -36 0
383 380 -382 -35 -38 -36 0
-383 -380 -382 35 38 -36 0
-383 -380 -382 -35 -38 -36 0
385 382 -35 0
385 -382 35 0
-385 382 35 0
-385 -382 -35 0
384 38 -36 0
384 -38 36 0
-384 38 36 0
-384 -38 -36 0
386 -383 385 0
386 -383 34 0
-386 383 385 0
-386 383 34 0
386 -383 33 -36 0
386 -383 -33 36 0
-386 383 33 -36 0
-386 383 -33 36 0
386 383 -385 33 36 -34 0
386 383 -385 -33 -36 -34 0
-386 -383 -385 33 36 -34 0
-386 -383 -385 -33 -36 -34 0
388 385 -33 0
388 -385 33 0
-388 385 33 0
-388 -385 -33 0
387 36 -34 0
387 -36 34 0
-387 36 34 0
-387 -36 -34 0
389 -386 388 0
389 -386 32 0
-389 386 388 0
-389 386 32 0
389 -386 31 -34 0
389 -386 -31 34 0
-389 386 31 -34 0
-389 386 -31 34 0
389 386 -388 31 34 -32 0
389 386 -388 -31 -34 -32 0
-389 -386 -388 31 34 -32 0
-389 -386 -388 -31 -34 -32 0
391 388 -31 0
391 -388 31 0
-391 388 31 0
-391 -388 -31 0
390 34 -32 0
390 -34 32 0
-390 34 32 0
-390 -34 -32 0
392 -389 391 0
392 -389 30 0
-392 389 391 0
-392 389 30 0
392 -389 29 -32 0
392 -389 -29 32 0
-392 389 29 -32 0
-392 389 -29 32 0
392 389 -391 29 32 -30 0
392 389 -391 -29 -32 -30 0
-392 -389 -391 29 32 -30 0
-392 -389 -391 -29 -32 -30 0
394 391 -29 0
394 -391 29 0
-394 391 29 0
-394 -391 -29 0
393 32 -30 0
393 -32 30 0
-393 32 30 0
-393 -32 -30 0
395 -392 394 0
395 -392 28 0
-395 392 394 0
-395 392 28 0
395 -392 27 -30 0
395 -392 -27 30 0
-395 392 27 -30 0
-395 392 -27 30 0
395 392 -394 27 30 -28 0
395 392 -394 -27 -30 -28 0
-395 -392 -394 27 30 -28 0
-395 -392 -394 -27 -30 -28 0
397 394 -27 0
397 -394 27 0
-397 394 27 0
-397 -394 -27 0
396 30 -28 0
396 -30 28 0
-396 30 28 0
-396 -30 -28 0
398 -395 397 0
398 -395 26 0
-398 395 397 0
-398 395 26 0
398 -395 25 -28 0
398 -395 -25 28 0
-398 395 25 -28 0
-398 395 -25 28 0
398 395 -397 25 28 -26 0
398 395 -397 -25 -28 -26 0
-398 -395 -397 25 28 -26 0
-398 -395 -397 -25 -28 -26 0
400 397 -25 0
400 -397 25 0
-400 397 25 0
-400 -397 -25 0
399 28 -26 0
399 -28 26 0
-399 28 26 0
-399 -28 -26 0
401 -398 400 0
401 -398 24 0
-401 398 400 0
-401 398 24 0
401 -398 23 -26 0
401 -398 -23 26 0
-401 398 23 -26 0
-401 398 -23 26 0
401 398 -400 23 26 -24 0
401 398 -400 -23 -26 -24 0
-401 -398 -400 23 26 -24 0
-401 -398 -400 -23 -26 -24 0
403 400 -23 0
403 -400 23 0
-403 400 23 0
-403 -400 -23 0
402 26 -24 0
402 -26 24 0
-402 26 24 0
-402 -26 -24 0
404 -401 403 0
404 -401 22 0
-404 401 403 0
-404 401 22 0
404 -401 21 -24 0
404 -401 -21 24 0
-404 401 21 -24 0
-404 401 -21 24 0
404 401 -403 21 24 -22 0
404 401 -403 -21 -24 -22 0
-404 -401 -403 21 24 -22 0
-404 -401 -403 -21 -24 -22 0
406 403 -21 0
406 -403 21 0
-406 403 21 0
-406 -403 -21 0
405 24 -22 0
405 -24 22 0
-405 24 22 0
-405 -24 -22 0
407 -404 406 0
407 -404 20 0
-407 404 406 0
-407 404 20 0
407 -404 19 -22 0
407 -404 -19 22 0
-407 404 19 -22 0
-407 404 -19 22 0
407 404 -406 19 22 -20 0
407 404 -406 -19 -22 -20 0
-407 -404 -406 19 22 -20 0
-407 -404 -406 -19 -22 -20 0
409 406 -19 0
409 -406 19 0
-409 406 19 0
-409 -406 -19 0
408 22 -20 0
408 -22 20 0
-408 22 20 0
-408 -22 -20 0
410 -407 409 0
410 -407 18 0
-410 407 409 0
-410 407 18 0
410 -407 17 -20 0
410 -407 -17 20 0
-410 407 17 -20 0
-410 407 -17 20 0
410 407 -409 17 20 -18 0
410 407 -409 -17 -20 -18 0
-410 -407 -409 17 20 -18 0
-410 -407 -409 -17 -20 -18 0
412 409 -17 0
412 -409 17 0
-412 409 17 0
-412 -409 -17 0
411 20 -18 0
411 -20 18 0
-411 20 18 0
-411 -20 -18 0
413 -410 412 0
413 -410 16 0
-413 410 412 0
-413 410 16 0
413 -410 15 -18 0
413 -410 -15 18 0
-413 410 15 -18 0
-413 410 -15 18 0
413 410 -412 15 18 -16 0
413 410 -412 -15 -18 -16 0
-413 -410 -412 15 18 -16 0
-413 -410 -412 -15 -18 -16 0
415 412 -15 0
415 -412 15 0
-415 412 15 0
-415 -412 -15 0
414 18 -16 0
414 -18 16 0
-414 18 16 0
-414 -18 -16 0
416 -413 415 0
416 -413 14 0
-416 413 415 0
-416 413 14 0
416 -413 13 -16 0
416 -413 -13 16 0
-416 413 13 -16 0
-416 413 -13 16 0
416 413 -415 13 16 -14 0
416 413 -415 -13 -16 -14 0
-416 -413 -415 13 16 -14 0
-416 -413 -415 -13 -16 -14 0
418 415 -13 0
418 -415 13 0
-418 415 13 0
-418 -415 -13 0
417 16 -14 0
417 -16 14 0
-417 16 14 0
-417 -16 -14 0
419 -416 418 0
419 -416 12 0
-419 416 418 0
-419 416 12 0
419 -416 11 -14 0
419 -416 -11 14 0
-419 416 11 -14 0
-419 416 -11 14 0
419 416 -418 11 14 -12 0
419 416 -418 -11 -14 -12 0
-419 -416 -418 11 14 -12 0
-419 -416 -418 -11 -14 -12 0
421 418 -11 0
421 -418 11 0
-421 418 11 0
-421 -418 -11 0
420 14 -12 0
420 -14 12 0
-420 14 12 0
-420 -14 -12 0
422 -419 421 0
422 -419 10 0
-422 419 421 0
-422 419 10 0
422 -419 9 -12 0
422 -419 -9 12 0
-422 419 9 -12 0
-422 419 -9 12 0
422 419 -421 9 12 -10 0
422 419 -421 -9 -12 -10 0
-422 -419 -421 9 12 -10 0
-422 -419 -421 -9 -12 -10 0
424 421 -9 0
424 -421 9 0
-424 421 9 0
-424 -421 -9 0
423 12 -10 0
423 -12 10 0
-423 12 10 0
-423 -12 -10 0
425 -422 424 0
425 -422 8 0
-425 422 424 0
-425 422 8 0
425 -422 7 -10 0
425 -422 -7 10 0
-425 422 7 -10 0
-425 422 -7 10 0
425 422 -424 7 10 -8 0
425 422 -424 -7 -10 -8 0
-425 -422 -424 7 10 -8 0
-425 -422 -424 -7 -10 -8 0
427 424 -7 0
427 -424 7 0
-427 424 7 0
-427 -424 -7 0
426 10 -8 0
426 -10 8 0
-426 10 8 0
-426 -10 -8 0
428 -425 427 0
428 -425 6 0
-428 425 427 0
-428 425 6 0
428 -425 5 -8 0
428 -425 -5 8 0
-428 425 5 -8 0
-428 425 -5 8 0
428 425 -427 5 8 -6 0
428 425 -427 -5 -8 -6 0
-428 -425 -427 5 8 -6 0
-428 -425 -427 -5 -8 -6 0
430 427 -5 0
430 -427 5 0
-430 427 5 0
-430 -427 -5 0
429 8 -6 0
429 -8 6 0
-429 8 6 0
-429 -8 -6 0
431 -428 430 0
431 -428 4 0
-431 428 430 0
-431 428 4 0
431 -428 3 -6 0
431 -428 -3 6 0
-431 428 3 -6 0
-431 428 -3 6 0
431 428 -430 3 6 -4 0
431 428 -430 -3 -6 -4 0
-431 -428 -430 3 6 -4 0
-431 -428 -430 -3 -6 -4 0
433 430 -3 0
433 -430 3 0
-433 430 3 0
-433 -430 -3 0
432 6 -4 0
432 -6 4 0
-432 6 4 0
-432 -6 -4 0
434 -431 433 0
434 -431 2 0
-434 431 433 0
-434 431 2 0
434 -431 1 -4 0
434 -431 -1 4 0
-434 431 1 -4 0
-434 431 -1 4 0
434 431 -433 1 4 -2 0
434 431 -433 -1 -4 -2 0
-434 -431 -433 1 4 -2 0
-434 -431 -433 -1 -4 -2 0
436 433 -1 0
436 -433 1 0
-436 433 1 0
-436 -433 -1 0
435 4 -2 0
435 -4 2 0
-435 4 2 0
-435 -4 -2 0
